c Created with the Wolfram Language : www.wolfram.com
c 
p edge 70 482
e 1 4
e 3 4
e 2 5
e 2 6
e 1 7
e 2 8
e 6 8
e 8 9
e 1 10
e 2 10
e 3 10
e 5 11
e 9 11
e 10 11
e 6 12
e 7 12
e 11 12
e 6 13
e 8 13
e 5 14
e 2 15
e 3 15
e 7 15
e 10 15
e 12 15
e 1 16
e 12 16
e 2 17
e 5 17
e 8 17
e 11 17
e 9 18
e 11 18
e 12 18
e 15 18
e 12 19
e 13 19
e 16 19
e 17 19
e 9 20
e 4 21
e 10 21
e 14 21
e 3 22
e 13 22
e 16 22
e 6 23
e 11 23
e 15 23
e 22 23
e 2 24
e 16 24
e 5 25
e 7 25
e 13 25
e 20 25
e 11 26
e 15 26
e 19 26
e 3 27
e 7 27
e 8 27
e 12 27
e 15 27
e 23 27
e 26 27
e 6 28
e 13 28
e 14 28
e 15 28
e 16 28
e 20 28
e 22 28
e 23 28
e 26 28
e 13 29
e 15 29
e 18 29
e 19 29
e 20 29
e 22 29
e 23 29
e 26 29
e 27 29
e 4 30
e 5 30
e 11 30
e 15 30
e 23 30
e 24 30
e 26 30
e 28 30
e 3 31
e 12 31
e 14 31
e 16 31
e 18 31
e 19 31
e 22 31
e 24 31
e 29 31
e 6 32
e 13 32
e 14 32
e 25 32
e 26 32
e 28 32
e 31 32
e 1 33
e 17 33
e 22 33
e 26 33
e 32 33
e 2 34
e 8 34
e 11 34
e 30 34
e 1 35
e 7 35
e 8 35
e 10 35
e 19 35
e 22 35
e 25 35
e 28 35
e 30 35
e 31 35
e 5 36
e 13 36
e 14 36
e 16 36
e 20 36
e 21 36
e 25 36
e 30 36
e 35 36
e 4 37
e 6 37
e 10 37
e 13 37
e 17 37
e 18 37
e 19 37
e 22 37
e 24 37
e 27 37
e 29 37
e 3 38
e 11 38
e 13 38
e 24 38
e 25 38
e 26 38
e 19 39
e 20 39
e 27 39
e 29 39
e 7 40
e 11 40
e 13 40
e 18 40
e 22 40
e 37 40
e 39 40
e 2 41
e 3 41
e 15 41
e 18 41
e 33 41
e 34 41
e 2 42
e 4 42
e 6 42
e 7 42
e 10 42
e 15 42
e 17 42
e 21 42
e 23 42
e 26 42
e 30 42
e 34 42
e 40 42
e 2 43
e 4 43
e 5 43
e 10 43
e 11 43
e 28 43
e 38 43
e 39 43
e 41 43
e 14 44
e 17 44
e 20 44
e 36 44
e 38 44
e 39 44
e 3 45
e 5 45
e 6 45
e 11 45
e 12 45
e 29 45
e 40 45
e 42 45
e 2 46
e 8 46
e 14 46
e 18 46
e 19 46
e 22 46
e 24 46
e 38 46
e 40 46
e 13 47
e 16 47
e 30 47
e 33 47
e 35 47
e 36 47
e 41 47
e 9 48
e 10 48
e 12 48
e 15 48
e 23 48
e 29 48
e 34 48
e 37 48
e 38 48
e 41 48
e 9 49
e 12 49
e 18 49
e 21 49
e 25 49
e 27 49
e 48 49
e 5 50
e 23 50
e 25 50
e 29 50
e 31 50
e 34 50
e 37 50
e 46 50
e 47 50
e 2 51
e 4 51
e 9 51
e 22 51
e 25 51
e 28 51
e 34 51
e 35 51
e 41 51
e 43 51
e 44 51
e 47 51
e 3 52
e 11 52
e 17 52
e 20 52
e 21 52
e 29 52
e 33 52
e 34 52
e 37 52
e 39 52
e 41 52
e 2 53
e 4 53
e 8 53
e 18 53
e 19 53
e 39 53
e 41 53
e 42 53
e 45 53
e 4 54
e 5 54
e 9 54
e 10 54
e 32 54
e 34 54
e 36 54
e 43 54
e 49 54
e 51 54
e 1 55
e 6 55
e 9 55
e 20 55
e 24 55
e 28 55
e 30 55
e 48 55
e 6 56
e 7 56
e 11 56
e 31 56
e 33 56
e 34 56
e 39 56
e 41 56
e 8 57
e 9 57
e 11 57
e 12 57
e 16 57
e 19 57
e 28 57
e 33 57
e 37 57
e 39 57
e 46 57
e 47 57
e 51 57
e 53 57
e 7 58
e 8 58
e 9 58
e 12 58
e 17 58
e 23 58
e 27 58
e 42 58
e 43 58
e 47 58
e 53 58
e 2 59
e 3 59
e 8 59
e 16 59
e 26 59
e 28 59
e 30 59
e 35 59
e 43 59
e 48 59
e 51 59
e 55 59
e 57 59
e 9 60
e 32 60
e 56 60
e 58 60
e 14 61
e 20 61
e 21 61
e 29 61
e 30 61
e 33 61
e 35 61
e 47 61
e 50 61
e 51 61
e 58 61
e 60 61
e 2 62
e 5 62
e 6 62
e 10 62
e 11 62
e 12 62
e 22 62
e 25 62
e 29 62
e 32 62
e 33 62
e 39 62
e 41 62
e 42 62
e 47 62
e 49 62
e 55 62
e 2 63
e 5 63
e 13 63
e 17 63
e 20 63
e 38 63
e 43 63
e 47 63
e 48 63
e 52 63
e 55 63
e 58 63
e 59 63
e 2 64
e 8 64
e 16 64
e 23 64
e 26 64
e 30 64
e 40 64
e 45 64
e 47 64
e 57 64
e 3 65
e 6 65
e 9 65
e 10 65
e 14 65
e 18 65
e 21 65
e 28 65
e 41 65
e 57 65
e 62 65
e 5 66
e 9 66
e 10 66
e 13 66
e 17 66
e 20 66
e 21 66
e 22 66
e 23 66
e 30 66
e 35 66
e 1 67
e 13 67
e 16 67
e 19 67
e 23 67
e 24 67
e 26 67
e 28 67
e 29 67
e 35 67
e 36 67
e 40 67
e 44 67
e 45 67
e 49 67
e 50 67
e 60 67
e 61 67
e 62 67
e 65 67
e 4 68
e 6 68
e 14 68
e 15 68
e 27 68
e 29 68
e 34 68
e 36 68
e 38 68
e 45 68
e 57 68
e 61 68
e 62 68
e 64 68
e 3 69
e 8 69
e 20 69
e 22 69
e 31 69
e 33 69
e 41 69
e 45 69
e 64 69
e 9 70
e 10 70
e 15 70
e 17 70
e 20 70
e 26 70
e 30 70
e 36 70
e 38 70
e 39 70
e 41 70
e 44 70
e 49 70
e 57 70
e 58 70
e 64 70
e 66 70
